NAME : st68_BR
TYPE : TSP
DIMENSION : 16
EDGE_WEIGHT_TYPE : EUC_2D
NODE_COORD_SECTION
5 48 67
10 42 67
11 7 76
12 29 51
33 20 55
37 48 83
48 5 67
50 41 76
51 25 76
52 37 64
54 10 55
56 16 74
60 29 60
64 9 100
65 17 82
67 10 68
EOF
